ssat_solver_solve2
#level: 2
Abc_NtkNodeNum(s->pNtk): 590  , BDD limit: 10240
level 1: 20 element
Exist
existence_eliminate_scope
Abc_NtkIsBddLogic(pNtk): 0
Abc_NtkIsStrash(pNtk): 1
existence_eliminate_scope_aig
exist by BDD failed
Abc_NtkNodeNum(s->pNtk): 10176400  , BDD limit: 12211680
Build BDD success
level 0: 20 element
Random
c ssat solving in ABC
#var: 40
s SATISFIABLE
  > Upper bound = 0.000000e+00
  > Lower bound = 0.000000e+00
FINISHED CPU 445.62 MEM 0 MAXMEM 2139796 STALE 0 MAXMEM_RSS 1979000
<time name="ALL">445650</time>
real 445.77
user 514.82
sys 195.93
